\ Model facility
\ LP format - for model browsing. Use MPS format to capture full model detail.
Minimize
  8600 X[0] + 10587 X[1] + 8575 X[2] + 4663 X[3] + 10088 X[4] + 710 y[0,0]
   + 714 y[0,1] + 797 y[0,2] + 594 y[0,3] + 153 y[1,0] + 389 y[1,1]
   + 426 y[1,2] + 321 y[1,3] + 143 y[2,0] + 649 y[2,1] + 76 y[2,2]
   + 601 y[2,3] + 33 y[3,0] + 333 y[3,1] + 713 y[3,2] + 846 y[3,3]
   + 122 y[4,0] + 387 y[4,1] + 626 y[4,2] + 678 y[4,3]
Subject To
 Capacity[0]: - 74 X[0] + 43 y[0,0] + 12 y[0,1] + 125 y[0,2] + 128 y[0,3]
   <= 0
 Capacity[1]: - 45 X[1] + 43 y[1,0] + 12 y[1,1] + 125 y[1,2] + 128 y[1,3]
   <= 0
 Capacity[2]: - 188 X[2] + 43 y[2,0] + 12 y[2,1] + 125 y[2,2] + 128 y[2,3]
   <= 0
 Capacity[3]: - 20 X[3] + 43 y[3,0] + 12 y[3,1] + 125 y[3,2] + 128 y[3,3]
   <= 0
 Capacity[4]: - 164 X[4] + 43 y[4,0] + 12 y[4,1] + 125 y[4,2] + 128 y[4,3]
   <= 0
 Demand[0]: y[0,0] + y[1,0] + y[2,0] + y[3,0] + y[4,0] = 1
 Demand[1]: y[0,1] + y[1,1] + y[2,1] + y[3,1] + y[4,1] = 1
 Demand[2]: y[0,2] + y[1,2] + y[2,2] + y[3,2] + y[4,2] = 1
 Demand[3]: y[0,3] + y[1,3] + y[2,3] + y[3,3] + y[4,3] = 1
Bounds
Binaries
 X[0] X[1] X[2] X[3] X[4] y[0,0] y[0,1] y[0,2] y[0,3] y[1,0] y[1,1] y[1,2]
 y[1,3] y[2,0] y[2,1] y[2,2] y[2,3] y[3,0] y[3,1] y[3,2] y[3,3] y[4,0]
 y[4,1] y[4,2] y[4,3]
End
